(declare-fun var0 () String)
(assert (RegexIn var0 (RegexConcat (RegexUnion (RegexPlus (Str2Reg "rrr")) (RegexStar (Str2Reg "sss"))) (RegexConcat (RegexStar (RegexPlus (Str2Reg "qqq"))) (RegexConcat (RegexUnion (RegexPlus (Str2Reg "oo")) (RegexStar (Str2Reg "p"))) (RegexConcat (RegexStar (RegexPlus (Str2Reg "nnn"))) (RegexConcat (RegexStar (RegexUnion (Str2Reg "ll") (Str2Reg "m"))) (RegexConcat (RegexUnion (RegexUnion (Str2Reg "hhh") (Str2Reg "iii")) (RegexUnion (Str2Reg "jjj") (Str2Reg "k"))) (RegexConcat (RegexUnion (RegexPlus (Str2Reg "fff")) (RegexPlus (Str2Reg "g"))) (RegexConcat (RegexPlus (RegexStar (Str2Reg "eee"))) (RegexConcat (RegexPlus (RegexStar (Str2Reg "ddd"))) (RegexConcat (RegexPlus (RegexUnion (Str2Reg "b") (Str2Reg "c"))) (RegexConcat (RegexUnion (RegexUnion (Str2Reg "88") (Str2Reg "99")) (RegexPlus (Str2Reg "aa"))) (RegexConcat (RegexPlus (RegexPlus (Str2Reg "77"))) (RegexConcat (RegexStar (RegexUnion (Str2Reg "555") (Str2Reg "6"))) (RegexConcat (RegexPlus (RegexStar (Str2Reg "4"))) (RegexConcat (RegexPlus (RegexPlus (Str2Reg "33"))) (RegexConcat (RegexUnion (RegexUnion (Str2Reg "0") (Str2Reg "111")) (RegexStar (Str2Reg "222"))) (RegexConcat (RegexStar (RegexPlus (Str2Reg "~"))) (RegexConcat (RegexStar (RegexPlus (Str2Reg "}"))) (RegexConcat (RegexStar (RegexUnion (Str2Reg "{{") (Str2Reg "|"))) (RegexConcat (RegexStar (RegexStar (Str2Reg "```"))) (RegexConcat (RegexUnion (RegexUnion (Str2Reg "\\") (Str2Reg "]")) (RegexUnion (Str2Reg "^") (Str2Reg "__"))) (RegexConcat (RegexUnion (RegexStar (Str2Reg "??")) (RegexUnion (Str2Reg "@@@") (Str2Reg "[["))) (RegexConcat (RegexUnion (RegexStar (Str2Reg "<<")) (RegexUnion (Str2Reg "=") (Str2Reg ">>"))) (RegexConcat (RegexPlus (RegexStar (Str2Reg ";;;"))) (RegexConcat (RegexPlus (RegexUnion (Str2Reg "/") (Str2Reg "::"))) (RegexConcat (RegexStar (RegexPlus (Str2Reg ".."))) (RegexConcat (RegexStar (RegexStar (Str2Reg "---"))) (RegexConcat (RegexStar (RegexPlus (Str2Reg ",,,"))) (RegexConcat (RegexPlus (RegexPlus (Str2Reg "++"))) (RegexConcat (RegexStar (RegexPlus (Str2Reg "*"))) (RegexConcat (RegexStar (RegexPlus (Str2Reg ")"))) (RegexConcat (RegexUnion (RegexPlus (Str2Reg "'")) (RegexPlus (Str2Reg "("))) (RegexConcat (RegexStar (RegexUnion (Str2Reg "%%%") (Str2Reg "&&&"))) (RegexConcat (RegexUnion (RegexPlus (Str2Reg "\"\"\"")) (RegexUnion (Str2Reg "##") (Str2Reg "$$"))) (RegexConcat (RegexUnion (RegexUnion (Str2Reg "XXX") (Str2Reg "YY")) (RegexUnion (Str2Reg "Z") (Str2Reg "!"))) (RegexConcat (RegexUnion (RegexPlus (Str2Reg "VV")) (RegexStar (Str2Reg "WWW"))) (RegexConcat (RegexUnion (RegexUnion (Str2Reg "R") (Str2Reg "S")) (RegexUnion (Str2Reg "TT") (Str2Reg "UU"))) (RegexConcat (RegexStar (RegexUnion (Str2Reg "PPP") (Str2Reg "QQQ"))) (RegexConcat (RegexPlus (RegexUnion (Str2Reg "NN") (Str2Reg "O"))) (RegexConcat (RegexPlus (RegexUnion (Str2Reg "LLL") (Str2Reg "MM"))) (RegexConcat (RegexUnion (RegexUnion (Str2Reg "I") (Str2Reg "JJ")) (RegexStar (Str2Reg "KK"))) (RegexConcat (RegexStar (RegexUnion (Str2Reg "GG") (Str2Reg "HHH"))) (RegexConcat (RegexUnion (RegexStar (Str2Reg "DD")) (RegexUnion (Str2Reg "E") (Str2Reg "F"))) (RegexConcat (RegexStar (RegexPlus (Str2Reg "CCC"))) (RegexConcat (RegexPlus (RegexStar (Str2Reg "B"))) (RegexConcat (RegexStar (RegexStar (Str2Reg "A"))) (RegexConcat (RegexStar (RegexUnion (Str2Reg "yy") (Str2Reg "zzz"))) (RegexConcat (RegexStar (RegexStar (Str2Reg "xx"))) (RegexConcat (RegexStar (RegexUnion (Str2Reg "v") (Str2Reg "ww"))) (RegexConcat (RegexUnion (RegexStar (Str2Reg "ss")) (RegexUnion (Str2Reg "tt") (Str2Reg "uuu"))) (RegexConcat (RegexStar (RegexPlus (Str2Reg "rr"))) (RegexConcat (RegexUnion (RegexPlus (Str2Reg "ppp")) (RegexStar (Str2Reg "q"))) (RegexConcat (RegexUnion (RegexUnion (Str2Reg "mmm") (Str2Reg "nn")) (RegexStar (Str2Reg "o"))) (RegexConcat (RegexPlus (RegexPlus (Str2Reg "lll"))) (RegexConcat (RegexStar (RegexPlus (Str2Reg "k"))) (RegexConcat (RegexPlus (RegexPlus (Str2Reg "jj"))) (RegexConcat (RegexStar (RegexPlus (Str2Reg "i"))) (RegexConcat (RegexUnion (RegexPlus (Str2Reg "ff")) (RegexUnion (Str2Reg "ggg") (Str2Reg "hh"))) (RegexConcat (RegexUnion (RegexPlus (Str2Reg "ccc")) (RegexUnion (Str2Reg "dd") (Str2Reg "eee"))) (RegexConcat (RegexUnion (RegexPlus (Str2Reg "aaa")) (RegexStar (Str2Reg "bb"))) (RegexConcat (RegexUnion (RegexUnion (Str2Reg "77") (Str2Reg "88")) (RegexStar (Str2Reg "99"))) (RegexConcat (RegexStar (RegexStar (Str2Reg "6"))) (RegexConcat (RegexPlus (RegexPlus (Str2Reg "5"))) (RegexConcat (RegexUnion (RegexPlus (Str2Reg "3")) (RegexStar (Str2Reg "44"))) (RegexConcat (RegexStar (RegexUnion (Str2Reg "11") (Str2Reg "222"))) (RegexConcat (RegexStar (RegexStar (Str2Reg "000"))) (RegexConcat (RegexPlus (RegexStar (Str2Reg "~~"))) (RegexConcat (RegexPlus (RegexUnion (Str2Reg "|||") (Str2Reg "}"))) (RegexConcat (RegexUnion (RegexStar (Str2Reg "___")) (RegexUnion (Str2Reg "`") (Str2Reg "{{"))) (RegexConcat (RegexPlus (RegexStar (Str2Reg "^^^"))) (RegexConcat (RegexPlus (RegexStar (Str2Reg "]"))) (RegexConcat (RegexUnion (RegexPlus (Str2Reg "[[")) (RegexPlus (Str2Reg "\\\\\\"))) (RegexConcat (RegexPlus (RegexPlus (Str2Reg "@"))) (RegexConcat (RegexStar (RegexUnion (Str2Reg ">>>") (Str2Reg "??"))) (RegexConcat (RegexUnion (RegexPlus (Str2Reg "<<")) (RegexPlus (Str2Reg "=="))) (RegexConcat (RegexPlus (RegexUnion (Str2Reg "::") (Str2Reg ";"))) (RegexConcat (RegexUnion (RegexUnion (Str2Reg "-") (Str2Reg ".")) (RegexStar (Str2Reg "//"))) (RegexConcat (RegexStar (RegexStar (Str2Reg ","))) (RegexConcat (RegexPlus (RegexUnion (Str2Reg "**") (Str2Reg "+"))) (RegexConcat (RegexStar (RegexPlus (Str2Reg "))"))) (RegexConcat (RegexUnion (RegexUnion (Str2Reg "&&&") (Str2Reg "'''")) (RegexPlus (Str2Reg "("))) (RegexConcat (RegexPlus (RegexStar (Str2Reg "%"))) (RegexConcat (RegexPlus (RegexUnion (Str2Reg "##") (Str2Reg "$$$"))) (RegexConcat (RegexPlus (RegexUnion (Str2Reg "!!") (Str2Reg "\""))) (RegexConcat (RegexPlus (RegexPlus (Str2Reg "ZZZ"))) (RegexConcat (RegexStar (RegexStar (Str2Reg "YY"))) (RegexConcat (RegexStar (RegexStar (Str2Reg "X"))) (RegexConcat (RegexUnion (RegexPlus (Str2Reg "VV")) (RegexPlus (Str2Reg "W"))) (RegexConcat (RegexStar (RegexStar (Str2Reg "UU"))) (RegexConcat (RegexPlus (RegexUnion (Str2Reg "SSS") (Str2Reg "TT"))) (RegexConcat (RegexPlus (RegexPlus (Str2Reg "R"))) (RegexConcat (RegexUnion (RegexPlus (Str2Reg "OO")) (RegexUnion (Str2Reg "P") (Str2Reg "QQQ"))) (RegexConcat (RegexUnion (RegexPlus (Str2Reg "MMM")) (RegexStar (Str2Reg "NN"))) (RegexConcat (RegexPlus (RegexPlus (Str2Reg "L"))) (RegexConcat (RegexPlus (RegexUnion (Str2Reg "JJ") (Str2Reg "KK"))) (RegexConcat (RegexStar (RegexPlus (Str2Reg "II"))) (RegexConcat (RegexPlus (RegexUnion (Str2Reg "G") (Str2Reg "H"))) (RegexConcat (RegexPlus (RegexUnion (Str2Reg "EE") (Str2Reg "F"))) (RegexConcat (RegexPlus (RegexPlus (Str2Reg "DDD"))) (RegexConcat (RegexUnion (RegexStar (Str2Reg "B")) (RegexStar (Str2Reg "C"))) (RegexConcat (RegexStar (RegexPlus (Str2Reg "A"))) (RegexConcat (RegexPlus (RegexUnion (Str2Reg "y") (Str2Reg "zzz"))) (RegexConcat (RegexStar (RegexStar (Str2Reg "xx"))) (RegexConcat (RegexUnion (RegexUnion (Str2Reg "u") (Str2Reg "v")) (RegexPlus (Str2Reg "www"))) (RegexConcat (RegexStar (RegexUnion (Str2Reg "sss") (Str2Reg "ttt"))) (RegexConcat (RegexUnion (RegexPlus (Str2Reg "ppp")) (RegexUnion (Str2Reg "qqq") (Str2Reg "r"))) (RegexConcat (RegexUnion (RegexUnion (Str2Reg "mm") (Str2Reg "n")) (RegexPlus (Str2Reg "ooo"))) (RegexConcat (RegexUnion (RegexPlus (Str2Reg "kk")) (RegexPlus (Str2Reg "lll"))) (RegexConcat (RegexStar (RegexUnion (Str2Reg "iii") (Str2Reg "j"))) (RegexConcat (RegexStar (RegexPlus (Str2Reg "hhh"))) (RegexConcat (RegexPlus (RegexStar (Str2Reg "g"))) (RegexConcat (RegexUnion (RegexStar (Str2Reg "eee")) (RegexPlus (Str2Reg "ff"))) (RegexConcat (RegexStar (RegexStar (Str2Reg "d"))) (RegexConcat (RegexUnion (RegexPlus (Str2Reg "aaa")) (RegexUnion (Str2Reg "bbb") (Str2Reg "cc"))) (RegexConcat (RegexPlus (RegexStar (Str2Reg "99"))) (RegexConcat (RegexPlus (RegexUnion (Str2Reg "7") (Str2Reg "8"))) (RegexConcat (RegexStar (RegexPlus (Str2Reg "66"))) (RegexConcat (RegexStar (RegexStar (Str2Reg "555"))) (RegexConcat (RegexStar (RegexStar (Str2Reg "44"))) (RegexConcat (RegexPlus (RegexPlus (Str2Reg "33"))) (RegexConcat (RegexUnion (RegexStar (Str2Reg "0")) (RegexUnion (Str2Reg "11") (Str2Reg "2"))) (RegexConcat (RegexStar (RegexPlus (Str2Reg "~~~"))) (RegexConcat (RegexUnion (RegexStar (Str2Reg "|||")) (RegexPlus (Str2Reg "}"))) (RegexConcat (RegexUnion (RegexUnion (Str2Reg "___") (Str2Reg "``")) (RegexPlus (Str2Reg "{{{"))) (RegexConcat (RegexStar (RegexPlus (Str2Reg "^^^"))) (RegexConcat (RegexPlus (RegexStar (Str2Reg "]"))) (RegexConcat (RegexStar (RegexStar (Str2Reg "\\"))) (RegexConcat (RegexPlus (RegexPlus (Str2Reg "["))) (RegexConcat (RegexStar (RegexUnion (Str2Reg "?") (Str2Reg "@@"))) (RegexConcat (RegexUnion (RegexUnion (Str2Reg "<<<") (Str2Reg "=")) (RegexPlus (Str2Reg ">>"))) (RegexConcat (RegexUnion (RegexUnion (Str2Reg "///") (Str2Reg "::")) (RegexStar (Str2Reg ";;"))) (RegexConcat (RegexPlus (RegexPlus (Str2Reg "..."))) (RegexConcat (RegexPlus (RegexUnion (Str2Reg ",,") (Str2Reg "--"))) (RegexConcat (RegexPlus (RegexUnion (Str2Reg "*") (Str2Reg "+"))) (RegexConcat (RegexUnion (RegexUnion (Str2Reg "''") (Str2Reg "(")) (RegexPlus (Str2Reg ")"))) (RegexConcat (RegexStar (RegexUnion (Str2Reg "%") (Str2Reg "&&&"))) (RegexConcat (RegexPlus (RegexPlus (Str2Reg "$"))) (RegexConcat (RegexStar (RegexPlus (Str2Reg "#"))) (RegexConcat (RegexPlus (RegexPlus (Str2Reg "\"\"\""))) (RegexConcat (RegexPlus (RegexUnion (Str2Reg "ZZ") (Str2Reg "!"))) (RegexConcat (RegexUnion (RegexUnion (Str2Reg "WW") (Str2Reg "X")) (RegexStar (Str2Reg "YYY"))) (RegexConcat (RegexUnion (RegexStar (Str2Reg "UUU")) (RegexPlus (Str2Reg "V"))) (RegexConcat (RegexPlus (RegexStar (Str2Reg "T"))) (RegexConcat (RegexUnion (RegexUnion (Str2Reg "QQ") (Str2Reg "R")) (RegexStar (Str2Reg "S"))) (RegexConcat (RegexPlus (RegexStar (Str2Reg "PP"))) (RegexConcat (RegexUnion (RegexUnion (Str2Reg "MM") (Str2Reg "N")) (RegexStar (Str2Reg "OOO"))) (RegexConcat (RegexStar (RegexStar (Str2Reg "LL"))) (RegexConcat (RegexUnion (RegexStar (Str2Reg "JJ")) (RegexPlus (Str2Reg "K"))) (RegexConcat (RegexPlus (RegexPlus (Str2Reg "I"))) (RegexConcat (RegexStar (RegexUnion (Str2Reg "GG") (Str2Reg "HHH"))) (RegexConcat (RegexStar (RegexPlus (Str2Reg "F"))) (RegexConcat (RegexUnion (RegexPlus (Str2Reg "DD")) (RegexStar (Str2Reg "EE"))) (RegexConcat (RegexStar (RegexStar (Str2Reg "CC"))) (RegexConcat (RegexStar (RegexPlus (Str2Reg "BB"))) (RegexConcat (RegexPlus (RegexStar (Str2Reg "A"))) (RegexConcat (RegexPlus (RegexPlus (Str2Reg "zz"))) (RegexConcat (RegexPlus (RegexPlus (Str2Reg "y"))) (RegexConcat (RegexStar (RegexPlus (Str2Reg "xxx"))) (RegexConcat (RegexStar (RegexStar (Str2Reg "w"))) (RegexConcat (RegexUnion (RegexUnion (Str2Reg "ttt") (Str2Reg "uu")) (RegexPlus (Str2Reg "v"))) (RegexConcat (RegexStar (RegexStar (Str2Reg "sss"))) (RegexConcat (RegexPlus (RegexUnion (Str2Reg "qqq") (Str2Reg "rrr"))) (RegexConcat (RegexPlus (RegexStar (Str2Reg "p"))) (RegexConcat (RegexPlus (RegexUnion (Str2Reg "n") (Str2Reg "oo"))) (RegexConcat (RegexPlus (RegexUnion (Str2Reg "l") (Str2Reg "m"))) (RegexConcat (RegexStar (RegexUnion (Str2Reg "jjj") (Str2Reg "kkk"))) (RegexConcat (RegexPlus (RegexUnion (Str2Reg "h") (Str2Reg "i"))) (RegexConcat (RegexPlus (RegexPlus (Str2Reg "g"))) (RegexConcat (RegexStar (RegexUnion (Str2Reg "ee") (Str2Reg "fff"))) (RegexConcat (RegexUnion (RegexPlus (Str2Reg "bb")) (RegexUnion (Str2Reg "ccc") (Str2Reg "dd"))) (RegexConcat (RegexStar (RegexPlus (Str2Reg "aa"))) (RegexConcat (RegexStar (RegexPlus (Str2Reg "99"))) (RegexConcat (RegexUnion (RegexUnion (Str2Reg "5") (Str2Reg "6")) (RegexUnion (Str2Reg "77") (Str2Reg "88"))) (RegexConcat (RegexUnion (RegexStar (Str2Reg "2")) (RegexUnion (Str2Reg "333") (Str2Reg "44"))) (RegexConcat (RegexPlus (RegexStar (Str2Reg "11"))) (RegexStar (RegexPlus (Str2Reg "000"))))))))))))))))))))))))))))))))))))))))))))))))))))))))))))))))))))))))))))))))))))))))))))))))))))))))))))))))))))))))))))))))))))))))))))))))))))))))))))))))))))))))))))))))))))
(check-sat)